5	6	7	8	9	10	11	12	13	14	15	16	17	18	19	20	21	22	23	24
	25	3	0	1	0	4	0	4	0	4	0	4	0	0	4	4	3	4	14
	37	10	6	7	8	12	8	12	8	12	8	12	4	4	10	10	10	12	29
	47	16	12	13	16	20	16	20	16	20	16	16	8	8	16	16	16	20	48
	55	21	18	20	24	28	24	28	24	28	24	20	12	12	22	22	22	25
		26	24	28	32	36	32	36	32	36	32	24	16	16	28	28	28	31
		30	30	36	40	44	40	44	40	44	39	28	20	22	34	34	33	36
		35	34	44	48	52	48	52	48	52	44	32	24	28	40	40	40	44
		39	39	50	56		56		56		49	36	28	34	46	46	48	59
		45	44	54							56	40	32	40	52	52	56
		50	49									44	36	43	58	58
		56	55									48	40	46
												52	44	52
												56	48	56
													52	58
													56
